Mn96 O192
1.0
  11.415147788913767   0.0000000000000000   0.0000000000000000
  0.0000000000000000   9.885807973153089   0.0000000000000000
  0.0000000000000000   0.0000000000000000   27.961287421298355
Mn O
96 192
direct
   0.7500000000000000    0.0000000000000000    0.0000000000000000 Mn3+
   0.8750000000000000    0.7500000000000000    0.0000000000000000 Mn3+
   0.7500000000000000    0.5000000000000000    0.0000000000000000 Mn3+
   0.8750000000000000    0.5833300000000000    0.0833300000000000 Mn3+
   0.6250000000000000    0.2500000000000000    0.0000000000000000 Mn3+
   0.8750000000000000    0.4166700000000000    0.1666700000000000 Mn3+
   0.5000000000000000    0.0000000000000000    0.0000000000000000 Mn3+
   0.6250000000000000    0.0833300000000000    0.0833300000000000 Mn3+
   0.7500000000000000    0.1666700000000000    0.1666700000000000 Mn3+
   0.8750000000000000    0.2500000000000000    0.2500000000000000 Mn3+
   0.8750000000000000    0.0833300000000000    0.3333300000000000 Mn3+
   0.5000000000000000    0.5000000000000000    0.0000000000000000 Mn3+
   0.7500000000000000    0.6666700000000000    0.1666700000000000 Mn3+
   0.2500000000000000    0.0000000000000000    0.0000000000000000 Mn3+
   0.5000000000000000    0.1666700000000000    0.1666700000000000 Mn3+
   0.7500000000000000    0.3333300000000000    0.3333300000000000 Mn3+
   0.7500000000000000    0.0000000000000000    0.5000000000000000 Mn3+
   0.3750000000000000    0.7500000000000000    0.0000000000000000 Mn3+
   0.6250000000000000    0.9166700000000000    0.1666700000000000 Mn3+
   0.2500000000000000    0.5000000000000000    0.0000000000000000 Mn3+
   0.3750000000000000    0.5833300000000000    0.0833300000000000 Mn3+
   0.5000000000000000    0.6666700000000000    0.1666700000000000 Mn3+
   0.6250000000000000    0.7500000000000000    0.2500000000000000 Mn3+
   0.7500000000000000    0.8333300000000000    0.3333300000000000 Mn3+
   0.8750000000000000    0.9166700000000000    0.4166700000000000 Mn3+
   0.1250000000000000    0.2500000000000000    0.0000000000000000 Mn3+
   0.3750000000000000    0.4166700000000000    0.1666700000000000 Mn3+
   0.6250000000000000    0.5833300000000000    0.3333300000000000 Mn3+
   0.8750000000000000    0.7500000000000000    0.5000000000000000 Mn3+
   0.0000000000000000    0.0000000000000000    0.0000000000000000 Mn3+
   0.1250000000000000    0.0833300000000000    0.0833300000000000 Mn3+
   0.2500000000000000    0.1666700000000000    0.1666700000000000 Mn3+
   0.3750000000000000    0.2500000000000000    0.2500000000000000 Mn3+
   0.5000000000000000    0.3333300000000000    0.3333300000000000 Mn3+
   0.6250000000000000    0.4166700000000000    0.4166700000000000 Mn3+
   0.7500000000000000    0.5000000000000000    0.5000000000000000 Mn3+
   0.8750000000000000    0.5833300000000000    0.5833300000000000 Mn3+
   0.3750000000000000    0.0833300000000000    0.3333300000000000 Mn3+
   0.6250000000000000    0.2500000000000000    0.5000000000000000 Mn3+
   0.8750000000000000    0.4166700000000000    0.6666700000000000 Mn3+
   0.5000000000000000    0.0000000000000000    0.5000000000000000 Mn3+
   0.6250000000000000    0.0833300000000000    0.5833300000000000 Mn3+
   0.7500000000000000    0.1666700000000000    0.6666700000000000 Mn3+
   0.8750000000000000    0.2500000000000000    0.7500000000000000 Mn3+
   0.8750000000000000    0.0833300000000000    0.8333300000000000 Mn3+
   0.0000000000000000    0.5000000000000000    0.0000000000000000 Mn3+
   0.2500000000000000    0.6666700000000000    0.1666700000000000 Mn3+
   0.5000000000000000    0.8333300000000000    0.3333300000000000 Mn3+
   0.0000000000000000    0.1666700000000000    0.1666700000000000 Mn3+
   0.2500000000000000    0.3333300000000000    0.3333300000000000 Mn3+
   0.5000000000000000    0.5000000000000000    0.5000000000000000 Mn3+
   0.7500000000000000    0.6666700000000000    0.6666700000000000 Mn3+
   0.2500000000000000    0.0000000000000000    0.5000000000000000 Mn3+
   0.5000000000000000    0.1666700000000000    0.6666700000000000 Mn3+
   0.7500000000000000    0.3333300000000000    0.8333300000000000 Mn3+
   0.1250000000000000    0.9166700000000000    0.1666700000000000 Mn3+
   0.0000000000000000    0.6666700000000000    0.1666700000000000 Mn3+
   0.1250000000000000    0.7500000000000000    0.2500000000000000 Mn3+
   0.2500000000000000    0.8333300000000000    0.3333300000000000 Mn3+
   0.3750000000000000    0.9166700000000000    0.4166700000000000 Mn3+
   0.1250000000000000    0.5833300000000000    0.3333300000000000 Mn3+
   0.3750000000000000    0.7500000000000000    0.5000000000000000 Mn3+
   0.6250000000000000    0.9166700000000000    0.6666700000000000 Mn3+
   0.0000000000000000    0.3333300000000000    0.3333300000000000 Mn3+
   0.1250000000000000    0.4166700000000000    0.4166700000000000 Mn3+
   0.2500000000000000    0.5000000000000000    0.5000000000000000 Mn3+
   0.3750000000000000    0.5833300000000000    0.5833300000000000 Mn3+
   0.5000000000000000    0.6666700000000000    0.6666700000000000 Mn3+
   0.6250000000000000    0.7500000000000000    0.7500000000000000 Mn3+
   0.7500000000000000    0.8333300000000000    0.8333300000000000 Mn3+
   0.8750000000000000    0.9166700000000000    0.9166700000000000 Mn3+
   0.1250000000000000    0.2500000000000000    0.5000000000000000 Mn3+
   0.3750000000000000    0.4166700000000000    0.6666700000000000 Mn3+
   0.6250000000000000    0.5833300000000000    0.8333300000000000 Mn3+
   0.0000000000000000    0.0000000000000000    0.5000000000000000 Mn3+
   0.1250000000000000    0.0833300000000000    0.5833300000000000 Mn3+
   0.2500000000000000    0.1666700000000000    0.6666700000000000 Mn3+
   0.3750000000000000    0.2500000000000000    0.7500000000000000 Mn3+
   0.5000000000000000    0.3333300000000000    0.8333300000000000 Mn3+
   0.6250000000000000    0.4166700000000000    0.9166700000000000 Mn3+
   0.3750000000000000    0.0833300000000000    0.8333300000000000 Mn3+
   0.0000000000000000    0.8333300000000000    0.3333300000000000 Mn3+
   0.0000000000000000    0.5000000000000000    0.5000000000000000 Mn3+
   0.2500000000000000    0.6666700000000000    0.6666700000000000 Mn3+
   0.5000000000000000    0.8333300000000000    0.8333300000000000 Mn3+
   0.0000000000000000    0.1666700000000000    0.6666700000000000 Mn3+
   0.2500000000000000    0.3333300000000000    0.8333300000000000 Mn3+
   0.1250000000000000    0.9166700000000000    0.6666700000000000 Mn3+
   0.0000000000000000    0.6666700000000000    0.6666700000000000 Mn3+
   0.1250000000000000    0.7500000000000000    0.7500000000000000 Mn3+
   0.2500000000000000    0.8333300000000000    0.8333300000000000 Mn3+
   0.3750000000000000    0.9166700000000000    0.9166700000000000 Mn3+
   0.1250000000000000    0.5833300000000000    0.8333300000000000 Mn3+
   0.0000000000000000    0.3333300000000000    0.8333300000000000 Mn3+
   0.1250000000000000    0.4166700000000000    0.9166700000000000 Mn3+
   0.0000000000000000    0.8333300000000000    0.8333300000000000 Mn3+
   0.8749999999999998    0.2500000000000000    0.1250000000000000 O2-
   0.7500000000000000    0.0000000000000000    0.1250000000000000 O2-
   0.8749999999999998    0.0833333333333334    0.2083333333333333 O2-
   0.8750000000000000    0.7500000000000000    0.1250000000000000 O2-
   0.7499999999999999    0.5000000000000000    0.1250000000000000 O2-
   0.8749999999999998    0.5833333333333333    0.2083333333333333 O2-
   0.6249999999999999    0.2500000000000000    0.1250000000000000 O2-
   0.7499999999999999    0.3333333333333334    0.2083333333333333 O2-
   0.8749999999999999    0.4166666666666667    0.2916666666666666 O2-
   0.4999999999999999    0.0000000000000000    0.1250000000000000 O2-
   0.6250000000000000    0.0833333333333333    0.2083333333333333 O2-
   0.7499999999999999    0.1666666666666666    0.2916666666666666 O2-
   0.8749999999999999    0.2500000000000000    0.3750000000000000 O2-
   0.7499999999999999    0.9999999999999999    0.3750000000000000 O2-
   0.8749999999999998    0.0833333333333332    0.4583333333333333 O2-
   0.6250000000000000    0.7499999999999999    0.1250000000000000 O2-
   0.7499999999999999    0.8333333333333333    0.2083333333333333 O2-
   0.8749999999999999    0.9166666666666667    0.2916666666666667 O2-
   0.4999999999999999    0.5000000000000000    0.1250000000000000 O2-
   0.6250000000000000    0.5833333333333334    0.2083333333333333 O2-
   0.7500000000000000    0.6666666666666667    0.2916666666666666 O2-
   0.8749999999999999    0.7500000000000000    0.3750000000000000 O2-
   0.3750000000000000    0.2500000000000000    0.1250000000000000 O2-
   0.4999999999999999    0.3333333333333334    0.2083333333333333 O2-
   0.6249999999999999    0.4166666666666666    0.2916666666666666 O2-
   0.7500000000000000    0.5000000000000000    0.3750000000000000 O2-
   0.8750000000000000    0.5833333333333334    0.4583333333333333 O2-
   0.2500000000000000    0.0000000000000000    0.1250000000000000 O2-
   0.3749999999999999    0.0833333333333333    0.2083333333333333 O2-
   0.5000000000000000    0.1666666666666667    0.2916666666666666 O2-
   0.6249999999999999    0.2500000000000000    0.3749999999999999 O2-
   0.7499999999999999    0.3333333333333333    0.4583333333333333 O2-
   0.8749999999999999    0.4166666666666666    0.5416666666666666 O2-
   0.5000000000000000    0.0000000000000000    0.3750000000000000 O2-
   0.6250000000000000    0.0833333333333333    0.4583333333333333 O2-
   0.7500000000000000    0.1666666666666666    0.5416666666666666 O2-
   0.8749999999999999    0.2499999999999999    0.6250000000000000 O2-
   0.7499999999999998    0.9999999999999999    0.6249999999999999 O2-
   0.8749999999999998    0.0833333333333332    0.7083333333333333 O2-
   0.3749999999999999    0.7500000000000000    0.1250000000000000 O2-
   0.5000000000000000    0.8333333333333334    0.2083333333333333 O2-
   0.6250000000000000    0.9166666666666667    0.2916666666666666 O2-
   0.2500000000000000    0.5000000000000000    0.1250000000000000 O2-
   0.3750000000000000    0.5833333333333334    0.2083333333333333 O2-
   0.5000000000000000    0.6666666666666667    0.2916666666666667 O2-
   0.6250000000000000    0.7500000000000000    0.3750000000000000 O2-
   0.7500000000000000    0.8333333333333334    0.4583333333333333 O2-
   0.8749999999999999    0.9166666666666666    0.5416666666666666 O2-
   0.1250000000000000    0.2500000000000000    0.1250000000000000 O2-
   0.2500000000000000    0.3333333333333334    0.2083333333333333 O2-
   0.3749999999999999    0.4166666666666666    0.2916666666666666 O2-
   0.4999999999999999    0.5000000000000000    0.3750000000000000 O2-
   0.6249999999999999    0.5833333333333333    0.4583333333333333 O2-
   0.7499999999999999    0.6666666666666666    0.5416666666666666 O2-
   0.8750000000000000    0.7500000000000000    0.6250000000000000 O2-
   0.0000000000000000    0.0000000000000000    0.1250000000000000 O2-
   0.1250000000000000    0.0833333333333333    0.2083333333333333 O2-
   0.2500000000000000    0.1666666666666667    0.2916666666666666 O2-
   0.3750000000000001    0.2500000000000000    0.3750000000000000 O2-
   0.5000000000000000    0.3333333333333334    0.4583333333333333 O2-
   0.6250000000000000    0.4166666666666667    0.5416666666666666 O2-
   0.7500000000000000    0.4999999999999999    0.6250000000000000 O2-
   0.8750000000000000    0.5833333333333333    0.7083333333333333 O2-
   0.2499999999999999    0.9999999999999999    0.3750000000000000 O2-
   0.3750000000000000    0.0833333333333333    0.4583333333333333 O2-
   0.5000000000000000    0.1666666666666666    0.5416666666666666 O2-
   0.6249999999999999    0.2499999999999999    0.6249999999999999 O2-
   0.7499999999999999    0.3333333333333332    0.7083333333333333 O2-
   0.8750000000000000    0.4166666666666667    0.7916666666666666 O2-
   0.4999999999999999    0.9999999999999999    0.6250000000000000 O2-
   0.6250000000000000    0.0833333333333333    0.7083333333333333 O2-
   0.7500000000000000    0.1666666666666666    0.7916666666666666 O2-
   0.8749999999999999    0.2500000000000000    0.8750000000000000 O2-
   0.7499999999999999    0.9999999999999999    0.8750000000000000 O2-
   0.8749999999999999    0.0833333333333331    0.9583333333333333 O2-
   0.1250000000000000    0.7500000000000000    0.1250000000000000 O2-
   0.2500000000000000    0.8333333333333334    0.2083333333333333 O2-
   0.3750000000000001    0.9166666666666667    0.2916666666666667 O2-
   0.0000000000000000    0.5000000000000000    0.1250000000000000 O2-
   0.1250000000000000    0.5833333333333334    0.2083333333333333 O2-
   0.2500000000000000    0.6666666666666666    0.2916666666666666 O2-
   0.3749999999999999    0.7500000000000000    0.3749999999999999 O2-
   0.4999999999999999    0.8333333333333333    0.4583333333333333 O2-
   0.6249999999999999    0.9166666666666666    0.5416666666666666 O2-
   0.0000000000000000    0.3333333333333333    0.2083333333333333 O2-
   0.1250000000000000    0.4166666666666666    0.2916666666666666 O2-
   0.2500000000000001    0.5000000000000000    0.3750000000000000 O2-
   0.3750000000000001    0.5833333333333333    0.4583333333333333 O2-
   0.5000000000000000    0.6666666666666667    0.5416666666666666 O2-
   0.6250000000000000    0.7500000000000000    0.6250000000000000 O2-
   0.7500000000000000    0.8333333333333334    0.7083333333333333 O2-
   0.8749999999999999    0.9166666666666666    0.7916666666666666 O2-
   0.0000000000000001    0.1666666666666667    0.2916666666666666 O2-
   0.1250000000000000    0.2500000000000000    0.3749999999999999 O2-
   0.2500000000000000    0.3333333333333333    0.4583333333333333 O2-
   0.3750000000000000    0.4166666666666666    0.5416666666666666 O2-
   0.4999999999999998    0.4999999999999999    0.6249999999999999 O2-
   0.6249999999999999    0.5833333333333331    0.7083333333333333 O2-
   0.7500000000000000    0.6666666666666666    0.7916666666666666 O2-
   0.8749999999999999    0.7500000000000000    0.8750000000000000 O2-
   0.0000000000000001    0.0000000000000000    0.3750000000000000 O2-
   0.1250000000000001    0.0833333333333333    0.4583333333333333 O2-
   0.2500000000000001    0.1666666666666666    0.5416666666666666 O2-
   0.3750000000000001    0.2499999999999999    0.6250000000000000 O2-
   0.5000000000000000    0.3333333333333333    0.7083333333333333 O2-
   0.6250000000000000    0.4166666666666666    0.7916666666666666 O2-
   0.7500000000000001    0.4999999999999999    0.8750000000000000 O2-
   0.8749999999999999    0.5833333333333331    0.9583333333333333 O2-
   0.2500000000000001    0.9999999999999999    0.6250000000000000 O2-
   0.3749999999999999    0.0833333333333332    0.7083333333333333 O2-
   0.5000000000000000    0.1666666666666665    0.7916666666666666 O2-
   0.6250000000000000    0.2499999999999998    0.8750000000000000 O2-
   0.7500000000000000    0.3333333333333333    0.9583333333333333 O2-
   0.8749999999999999    0.4166666666666665    0.0416666666666665 O2-
   0.4999999999999999    0.9999999999999998    0.8749999999999999 O2-
   0.6250000000000000    0.0833333333333331    0.9583333333333333 O2-
   0.7500000000000000    0.1666666666666665    0.0416666666666667 O2-
   0.0000000000000001    0.8333333333333334    0.2083333333333333 O2-
   0.1250000000000000    0.9166666666666666    0.2916666666666666 O2-
   0.0000000000000000    0.6666666666666666    0.2916666666666666 O2-
   0.1250000000000001    0.7500000000000000    0.3750000000000000 O2-
   0.2500000000000001    0.8333333333333334    0.4583333333333333 O2-
   0.3750000000000001    0.9166666666666666    0.5416666666666666 O2-
   0.0000000000000000    0.4999999999999999    0.3750000000000000 O2-
   0.1249999999999999    0.5833333333333333    0.4583333333333333 O2-
   0.2499999999999999    0.6666666666666667    0.5416666666666666 O2-
   0.3749999999999999    0.7499999999999999    0.6249999999999999 O2-
   0.4999999999999998    0.8333333333333333    0.7083333333333333 O2-
   0.6250000000000000    0.9166666666666667    0.7916666666666666 O2-
   0.0000000000000000    0.3333333333333334    0.4583333333333333 O2-
   0.1250000000000000    0.4166666666666667    0.5416666666666666 O2-
   0.2500000000000000    0.4999999999999999    0.6250000000000000 O2-
   0.3750000000000001    0.5833333333333333    0.7083333333333333 O2-
   0.4999999999999999    0.6666666666666666    0.7916666666666666 O2-
   0.6250000000000000    0.7500000000000000    0.8750000000000000 O2-
   0.7500000000000000    0.8333333333333333    0.9583333333333331 O2-
   0.8750000000000001    0.9166666666666667    0.0416666666666667 O2-
   0.0000000000000000    0.1666666666666666    0.5416666666666666 O2-
   0.1250000000000001    0.2500000000000000    0.6250000000000000 O2-
   0.2500000000000000    0.3333333333333332    0.7083333333333331 O2-
   0.3750000000000000    0.4166666666666667    0.7916666666666666 O2-
   0.5000000000000000    0.4999999999999999    0.8750000000000000 O2-
   0.6250000000000001    0.5833333333333333    0.9583333333333333 O2-
   0.7499999999999999    0.6666666666666666    0.0416666666666665 O2-
   0.0000000000000000    0.9999999999999999    0.6250000000000000 O2-
   0.1250000000000001    0.0833333333333332    0.7083333333333333 O2-
   0.2499999999999999    0.1666666666666666    0.7916666666666666 O2-
   0.3749999999999999    0.2499999999999999    0.8749999999999999 O2-
   0.5000000000000000    0.3333333333333332    0.9583333333333333 O2-
   0.6250000000000001    0.4166666666666665    0.0416666666666667 O2-
   0.2500000000000000    0.9999999999999999    0.8750000000000000 O2-
   0.3750000000000001    0.0833333333333331    0.9583333333333333 O2-
   0.5000000000000001    0.1666666666666664    0.0416666666666665 O2-
   0.0000000000000000    0.8333333333333333    0.4583333333333333 O2-
   0.1250000000000000    0.9166666666666666    0.5416666666666666 O2-
   0.0000000000000000    0.6666666666666666    0.5416666666666666 O2-
   0.1250000000000000    0.7500000000000000    0.6250000000000000 O2-
   0.2499999999999999    0.8333333333333333    0.7083333333333334 O2-
   0.3750000000000001    0.9166666666666666    0.7916666666666666 O2-
   0.0000000000000001    0.5000000000000000    0.6250000000000000 O2-
   0.1250000000000000    0.5833333333333331    0.7083333333333333 O2-
   0.2500000000000001    0.6666666666666666    0.7916666666666666 O2-
   0.3750000000000000    0.7500000000000000    0.8750000000000000 O2-
   0.5000000000000001    0.8333333333333333    0.9583333333333333 O2-
   0.6250000000000000    0.9166666666666666    0.0416666666666665 O2-
   0.0000000000000001    0.3333333333333333    0.7083333333333333 O2-
   0.1250000000000001    0.4166666666666666    0.7916666666666666 O2-
   0.2499999999999998    0.4999999999999998    0.8749999999999999 O2-
   0.3750000000000000    0.5833333333333333    0.9583333333333333 O2-
   0.4999999999999999    0.6666666666666666    0.0416666666666667 O2-
   0.0000000000000000    0.1666666666666666    0.7916666666666666 O2-
   0.1249999999999999    0.2499999999999999    0.8750000000000000 O2-
   0.2500000000000000    0.3333333333333333    0.9583333333333333 O2-
   0.3749999999999999    0.4166666666666666    0.0416666666666665 O2-
   0.0000000000000000    0.9999999999999998    0.8749999999999999 O2-
   0.1249999999999999    0.0833333333333331    0.9583333333333333 O2-
   0.2500000000000001    0.1666666666666665    0.0416666666666667 O2-
   0.9999999999999999    0.8333333333333334    0.7083333333333333 O2-
   0.1250000000000000    0.9166666666666667    0.7916666666666666 O2-
   0.0000000000000000    0.6666666666666666    0.7916666666666666 O2-
   0.1249999999999999    0.7499999999999999    0.8749999999999999 O2-
   0.2499999999999999    0.8333333333333333    0.9583333333333333 O2-
   0.3750000000000000    0.9166666666666666    0.0416666666666665 O2-
   0.0000000000000000    0.4999999999999999    0.8750000000000000 O2-
   0.1250000000000000    0.5833333333333333    0.9583333333333333 O2-
   0.2499999999999999    0.6666666666666666    0.0416666666666665 O2-
   0.9999999999999999    0.3333333333333333    0.9583333333333333 O2-
   0.1250000000000000    0.4166666666666665    0.0416666666666667 O2-
   0.0000000000000001    0.1666666666666665    0.0416666666666665 O2-
   0.0000000000000002    0.8333333333333333    0.9583333333333333 O2-
   0.1250000000000000    0.9166666666666666    0.0416666666666665 O2-
   0.0000000000000000    0.6666666666666666    0.0416666666666667 O2-
