Mn48 O96
1.0
  8.07172840978755   0.0000000000000000   0.0000000000000000
  0.0000000000000000   8.071728409787552   0.0000000000000000
  0.0000000000000000   0.0000000000000000   24.21518522936265
Mn O
48 96
direct
   0.0000000000000000    0.2500000000000000    0.9166700000000000 Mn3+
   0.0000000000000000    0.0000000000000000    0.6666700000000000 Mn3+
   0.2500000000000000    0.0000000000000000    0.7500000000000000 Mn3+
   0.5000000000000000    0.0000000000000000    0.8333300000000000 Mn3+
   0.7500000000000000    0.0000000000000000    0.9166700000000000 Mn3+
   0.2500000000000000    0.2500000000000000    0.8333300000000000 Mn3+
   0.0000000000000000    0.5000000000000000    0.8333300000000000 Mn3+
   0.2500000000000000    0.5000000000000000    0.9166700000000000 Mn3+
   0.0000000000000000    0.2500000000000000    0.5833300000000000 Mn3+
   0.5000000000000000    0.2500000000000000    0.7500000000000000 Mn3+
   0.0000000000000000    0.7500000000000000    0.7500000000000000 Mn3+
   0.5000000000000000    0.7500000000000000    0.9166700000000000 Mn3+
   0.2500000000000000    0.0000000000000000    0.4166700000000000 Mn3+
   0.5000000000000000    0.0000000000000000    0.5000000000000000 Mn3+
   0.7500000000000000    0.0000000000000000    0.5833300000000000 Mn3+
   0.0000000000000000    0.2500000000000000    0.4166700000000000 Mn3+
   0.2500000000000000    0.2500000000000000    0.5000000000000000 Mn3+
   0.7500000000000000    0.2500000000000000    0.6666700000000000 Mn3+
   0.0000000000000000    0.5000000000000000    0.5000000000000000 Mn3+
   0.2500000000000000    0.5000000000000000    0.5833300000000000 Mn3+
   0.5000000000000000    0.5000000000000000    0.6666700000000000 Mn3+
   0.7500000000000000    0.5000000000000000    0.7500000000000000 Mn3+
   0.2500000000000000    0.7500000000000000    0.6666700000000000 Mn3+
   0.7500000000000000    0.7500000000000000    0.8333300000000000 Mn3+
   0.0000000000000000    0.0000000000000000    0.1666700000000000 Mn3+
   0.5000000000000000    0.0000000000000000    0.3333300000000000 Mn3+
   0.0000000000000000    0.5000000000000000    0.3333300000000000 Mn3+
   0.5000000000000000    0.7500000000000000    0.5833300000000000 Mn3+
   0.2500000000000000    0.0000000000000000    0.0833300000000000 Mn3+
   0.7500000000000000    0.0000000000000000    0.2500000000000000 Mn3+
   0.0000000000000000    0.2500000000000000    0.0833300000000000 Mn3+
   0.2500000000000000    0.2500000000000000    0.1666700000000000 Mn3+
   0.5000000000000000    0.2500000000000000    0.2500000000000000 Mn3+
   0.7500000000000000    0.2500000000000000    0.3333300000000000 Mn3+
   0.2500000000000000    0.5000000000000000    0.2500000000000000 Mn3+
   0.7500000000000000    0.5000000000000000    0.4166700000000000 Mn3+
   0.0000000000000000    0.7500000000000000    0.2500000000000000 Mn3+
   0.2500000000000000    0.7500000000000000    0.3333300000000000 Mn3+
   0.5000000000000000    0.7500000000000000    0.4166700000000000 Mn3+
   0.7500000000000000    0.7500000000000000    0.5000000000000000 Mn3+
   0.5000000000000000    0.0000000000000000    0.0000000000000000 Mn3+
   0.0000000000000000    0.5000000000000000    0.0000000000000000 Mn3+
   0.5000000000000000    0.5000000000000000    0.1666700000000000 Mn3+
   0.7500000000000000    0.2500000000000000    0.0000000000000000 Mn3+
   0.7500000000000000    0.5000000000000000    0.0833300000000000 Mn3+
   0.2500000000000000    0.7500000000000000    0.0000000000000000 Mn3+
   0.5000000000000000    0.7500000000000000    0.0833300000000000 Mn3+
   0.7500000000000000    0.7500000000000000    0.1666700000000000 Mn3+
   0.2499999999999999    0.2500000000000002    0.9166666666666666 O2-
   0.4999999999999999    0.2500000000000002    0.0000000000000000 O2-
   0.2499999999999998    0.5000000000000001    0.9999999999999999 O2-
   0.2499999999999999    0.2499999999999999    0.7499999999999999 O2-
   0.4999999999999999    0.2499999999999999    0.8333333333333333 O2-
   0.7500000000000000    0.2500000000000001    0.9166666666666665 O2-
   0.0000000000000000    0.2500000000000001    0.9999999999999999 O2-
   0.2499999999999998    0.5000000000000001    0.8333333333333334 O2-
   0.4999999999999998    0.5000000000000001    0.9166666666666667 O2-
   0.7499999999999998    0.5000000000000001    0.0000000000000000 O2-
   0.2499999999999999    0.7500000000000000    0.9166666666666666 O2-
   0.4999999999999999    0.7500000000000000    0.9999999999999999 O2-
   0.2499999999999998    0.0000000000000000    0.0000000000000000 O2-
   0.2499999999999998    0.2500000000000001    0.5833333333333333 O2-
   0.5000000000000000    0.2500000000000001    0.6666666666666666 O2-
   0.7500000000000000    0.2500000000000001    0.7499999999999999 O2-
   0.9999999999999998    0.2500000000000001    0.8333333333333333 O2-
   0.2499999999999998    0.5000000000000000    0.6666666666666665 O2-
   0.5000000000000001    0.4999999999999999    0.7500000000000000 O2-
   0.7500000000000000    0.5000000000000000    0.8333333333333333 O2-
   0.9999999999999998    0.5000000000000000    0.9166666666666665 O2-
   0.2499999999999997    0.7500000000000001    0.7500000000000000 O2-
   0.4999999999999997    0.7500000000000001    0.8333333333333334 O2-
   0.7500000000000000    0.7499999999999999    0.9166666666666665 O2-
   0.9999999999999997    0.7500000000000001    0.0000000000000000 O2-
   0.2500000000000001    0.9999999999999999    0.8333333333333334 O2-
   0.4999999999999997    0.0000000000000000    0.9166666666666665 O2-
   0.7500000000000000    0.0000000000000000    0.0000000000000000 O2-
   0.2499999999999999    0.2500000000000000    0.4166666666666666 O2-
   0.5000000000000000    0.2500000000000000    0.4999999999999999 O2-
   0.7499999999999999    0.2500000000000000    0.5833333333333333 O2-
   0.0000000000000000    0.2500000000000001    0.6666666666666666 O2-
   0.2500000000000001    0.5000000000000000    0.5000000000000000 O2-
   0.4999999999999999    0.5000000000000001    0.5833333333333334 O2-
   0.7500000000000001    0.5000000000000000    0.6666666666666666 O2-
   0.9999999999999999    0.5000000000000001    0.7500000000000000 O2-
   0.2499999999999999    0.7500000000000000    0.5833333333333333 O2-
   0.4999999999999999    0.7500000000000001    0.6666666666666666 O2-
   0.7499999999999999    0.7500000000000000    0.7500000000000000 O2-
   0.9999999999999999    0.7500000000000000    0.8333333333333333 O2-
   0.2500000000000002    0.9999999999999999    0.6666666666666666 O2-
   0.4999999999999998    0.0000000000000000    0.7500000000000000 O2-
   0.7499999999999998    0.0000000000000000    0.8333333333333334 O2-
   0.0000000000000002    0.0000000000000000    0.9166666666666665 O2-
   0.2500000000000000    0.2500000000000000    0.2500000000000000 O2-
   0.4999999999999999    0.2500000000000000    0.3333333333333333 O2-
   0.7499999999999999    0.2500000000000000    0.4166666666666666 O2-
   0.9999999999999999    0.2500000000000000    0.4999999999999999 O2-
   0.2500000000000000    0.5000000000000000    0.3333333333333333 O2-
   0.5000000000000000    0.5000000000000000    0.4166666666666667 O2-
   0.7500000000000001    0.5000000000000000    0.5000000000000000 O2-
   0.0000000000000000    0.4999999999999999    0.5833333333333334 O2-
   0.2499999999999998    0.7500000000000001    0.4166666666666667 O2-
   0.4999999999999999    0.7500000000000000    0.4999999999999999 O2-
   0.7499999999999997    0.7500000000000001    0.5833333333333334 O2-
   0.9999999999999999    0.7500000000000000    0.6666666666666666 O2-
   0.2500000000000000    0.0000000000000000    0.5000000000000000 O2-
   0.4999999999999999    0.0000000000000000    0.5833333333333334 O2-
   0.7500000000000001    0.0000000000000000    0.6666666666666666 O2-
   0.0000000000000000    0.0000000000000000    0.7500000000000000 O2-
   0.2500000000000000    0.2500000000000000    0.0833333333333334 O2-
   0.5000000000000000    0.2500000000000000    0.1666666666666667 O2-
   0.7499999999999999    0.2500000000000000    0.2500000000000000 O2-
   0.9999999999999999    0.2500000000000000    0.3333333333333333 O2-
   0.2500000000000000    0.5000000000000000    0.1666666666666667 O2-
   0.4999999999999999    0.5000000000000000    0.2500000000000000 O2-
   0.7500000000000000    0.5000000000000000    0.3333333333333334 O2-
   0.0000000000000000    0.4999999999999999    0.4166666666666667 O2-
   0.2500000000000000    0.7500000000000000    0.2500000000000001 O2-
   0.5000000000000000    0.7500000000000000    0.3333333333333334 O2-
   0.7499999999999998    0.7500000000000000    0.4166666666666666 O2-
   0.0000000000000002    0.7500000000000000    0.5000000000000000 O2-
   0.2499999999999999    0.0000000000000000    0.3333333333333334 O2-
   0.4999999999999999    0.0000000000000000    0.4166666666666667 O2-
   0.7500000000000001    0.0000000000000000    0.5000000000000000 O2-
   0.9999999999999999    0.0000000000000002    0.5833333333333334 O2-
   0.7500000000000001    0.2500000000000001    0.0833333333333334 O2-
   0.0000000000000000    0.2500000000000001    0.1666666666666667 O2-
   0.5000000000000000    0.4999999999999999    0.0833333333333334 O2-
   0.7500000000000000    0.5000000000000000    0.1666666666666667 O2-
   0.0000000000000000    0.4999999999999999    0.2500000000000001 O2-
   0.2500000000000000    0.7500000000000000    0.0833333333333334 O2-
   0.5000000000000000    0.7500000000000001    0.1666666666666667 O2-
   0.7500000000000000    0.7500000000000000    0.2500000000000001 O2-
   0.0000000000000000    0.7500000000000000    0.3333333333333334 O2-
   0.2500000000000000    0.0000000000000000    0.1666666666666667 O2-
   0.4999999999999999    0.0000000000000000    0.2500000000000001 O2-
   0.7499999999999999    0.0000000000000000    0.3333333333333334 O2-
   0.0000000000000000    0.0000000000000002    0.4166666666666667 O2-
   0.0000000000000000    0.5000000000000000    0.0833333333333334 O2-
   0.7500000000000000    0.7500000000000001    0.0833333333333334 O2-
   0.0000000000000002    0.7500000000000001    0.1666666666666667 O2-
   0.5000000000000000    0.0000000000000000    0.0833333333333334 O2-
   0.7500000000000000    0.0000000000000000    0.1666666666666667 O2-
   0.0000000000000000    0.0000000000000000    0.2500000000000001 O2-
   0.0000000000000002    0.0000000000000000    0.0833333333333334 O2-
